c Miter CNF for c17 fault SA0@net6
p cnf 28 62
1 2 0
-1 -2 0
3 4 0
-3 -4 0
5 -7 0
6 -7 0
-5 -6 7 0
4 -9 0
2 -9 0
-4 -2 9 0
-9 -8 0
-7 -8 0
9 7 8 0
-6 -10 -11 0
6 11 0
10 11 0
-7 13 0
-2 13 0
7 2 -13 0
-13 -11 -12 0
13 12 0
11 12 0
14 15 0
-14 -15 0
16 17 0
-16 -17 0
18 -20 0
19 -20 0
-18 -19 20 0
17 -22 0
15 -22 0
-17 -15 22 0
-22 -21 0
-20 -21 0
22 20 21 0
-19 -23 -24 0
19 24 0
23 24 0
-20 26 0
-15 26 0
20 15 -26 0
-26 -24 -25 0
26 25 0
24 25 0
-16 0
10 -23 0
-10 23 0
1 -14 0
-1 14 0
6 -19 0
-6 19 0
5 -18 0
-5 18 0
-12 -25 -27 0
12 25 -27 0
12 -25 27 0
-12 25 27 0
-8 -21 -28 0
8 21 -28 0
8 -21 28 0
-8 21 28 0
27 28 0
